50
1 0 83
2 0 54
2 1 12
3 0 57
3 1 1
3 2 5
4 0 98
4 1 57
4 2 17
4 3 66
5 0 76
5 1 20
5 2 50
5 3 78
5 4 28
6 0 91
6 1 49
6 2 56
6 3 100
6 4 2
6 5 20
7 0 42
7 1 43
7 2 47
7 3 73
7 4 55
7 5 27
7 6 83
8 0 42
8 1 63
8 2 68
8 3 88
8 4 83
8 5 45
8 6 18
8 7 86
9 0 38
9 1 49
9 2 73
9 3 8
9 4 23
9 5 52
9 6 18
9 7 64
9 8 82
10 0 64
10 1 22
10 2 25
10 3 9
10 4 53
10 5 38
10 6 57
10 7 42
10 8 75
10 9 73
11 0 55
11 1 67
11 2 26
11 3 37
11 4 56
11 5 86
11 6 72
11 7 86
11 8 36
11 9 52
11 10 3
12 0 19
12 1 34
12 2 65
12 3 23
12 4 88
12 5 31
12 6 76
12 7 81
12 8 32
12 9 95
12 10 55
12 11 94
13 0 53
13 1 75
13 2 14
13 3 24
13 4 87
13 5 82
13 6 89
13 7 5
13 8 35
13 9 16
13 10 29
13 11 32
13 12 65
14 0 5
14 1 38
14 2 63
14 3 4
14 4 86
14 5 69
14 6 96
14 7 57
14 8 28
14 9 80
14 10 14
14 11 53
14 12 73
14 13 78
15 0 17
15 1 87
15 2 72
15 3 26
15 4 81
15 5 5
15 6 16
15 7 89
15 8 19
15 9 67
15 10 89
15 11 34
15 12 24
15 13 74
15 14 11
16 0 27
16 1 22
16 2 39
16 3 39
16 4 70
16 5 77
16 6 47
16 7 35
16 8 90
16 9 7
16 10 42
16 11 38
16 12 65
16 13 14
16 14 12
16 15 76
17 0 46
17 1 41
17 2 77
17 3 24
17 4 20
17 5 93
17 6 2
17 7 92
17 8 6
17 9 3
17 10 85
17 11 81
17 12 3
17 13 21
17 14 90
17 15 65
17 16 10
18 0 55
18 1 28
18 2 76
18 3 94
18 4 1
18 5 3
18 6 92
18 7 89
18 8 27
18 9 88
18 10 70
18 11 27
18 12 9
18 13 81
18 14 67
18 15 51
18 16 39
18 17 60
19 0 36
19 1 71
19 2 37
19 3 54
19 4 100
19 5 29
19 6 41
19 7 72
19 8 39
19 9 17
19 10 75
19 11 77
19 12 29
19 13 54
19 14 92
19 15 90
19 16 40
19 17 2
19 18 62
20 0 63
20 1 68
20 2 2
20 3 46
20 4 53
20 5 57
20 6 35
20 7 69
20 8 88
20 9 47
20 10 58
20 11 94
20 12 2
20 13 41
20 14 61
20 15 53
20 16 95
20 17 88
20 18 48
20 19 97
21 0 27
21 1 19
21 2 30
21 3 46
21 4 59
21 5 78
21 6 98
21 7 85
21 8 8
21 9 50
21 10 4
21 11 13
21 12 61
21 13 69
21 14 62
21 15 46
21 16 86
21 17 48
21 18 65
21 19 41
21 20 17
22 0 83
22 1 65
22 2 74
22 3 16
22 4 14
22 5 65
22 6 6
22 7 21
22 8 42
22 9 25
22 10 15
22 11 55
22 12 37
22 13 74
22 14 66
22 15 39
22 16 94
22 17 88
22 18 67
22 19 34
22 20 8
22 21 72
23 0 26
23 1 18
23 2 83
23 3 44
23 4 85
23 5 59
23 6 100
23 7 38
23 8 38
23 9 49
23 10 100
23 11 49
23 12 27
23 13 100
23 14 59
23 15 87
23 16 74
23 17 36
23 18 74
23 19 32
23 20 17
23 21 9
23 22 63
24 0 94
24 1 27
24 2 34
24 3 64
24 4 15
24 5 48
24 6 27
24 7 93
24 8 77
24 9 82
24 10 80
24 11 73
24 12 3
24 13 94
24 14 16
24 15 68
24 16 61
24 17 30
24 18 95
24 19 66
24 20 1
24 21 68
24 22 83
24 23 2
25 0 2
25 1 40
25 2 88
25 3 20
25 4 95
25 5 90
25 6 30
25 7 11
25 8 94
25 9 73
25 10 15
25 11 66
25 12 55
25 13 97
25 14 93
25 15 48
25 16 33
25 17 64
25 18 58
25 19 67
25 20 17
25 21 65
25 22 6
25 23 97
25 24 67
26 0 34
26 1 49
26 2 92
26 3 70
26 4 73
26 5 62
26 6 78
26 7 96
26 8 81
26 9 11
26 10 25
26 11 27
26 12 79
26 13 89
26 14 27
26 15 73
26 16 93
26 17 51
26 18 60
26 19 14
26 20 41
26 21 29
26 22 75
26 23 36
26 24 43
26 25 69
27 0 47
27 1 25
27 2 41
27 3 31
27 4 8
27 5 56
27 6 6
27 7 16
27 8 13
27 9 1
27 10 63
27 11 42
27 12 27
27 13 11
27 14 61
27 15 67
27 16 32
27 17 79
27 18 74
27 19 26
27 20 84
27 21 68
27 22 8
27 23 49
27 24 83
27 25 64
27 26 48
28 0 61
28 1 24
28 2 6
28 3 72
28 4 80
28 5 45
28 6 70
28 7 8
28 8 78
28 9 96
28 10 40
28 11 31
28 12 62
28 13 85
28 14 78
28 15 5
28 16 80
28 17 79
28 18 79
28 19 21
28 20 86
28 21 79
28 22 71
28 23 3
28 24 89
28 25 69
28 26 95
28 27 63
29 0 92
29 1 31
29 2 86
29 3 26
29 4 85
29 5 79
29 6 24
29 7 77
29 8 44
29 9 26
29 10 38
29 11 87
29 12 70
29 13 15
29 14 74
29 15 13
29 16 49
29 17 72
29 18 65
29 19 92
29 20 23
29 21 50
29 22 67
29 23 68
29 24 5
29 25 84
29 26 40
29 27 26
29 28 81
30 0 75
30 1 89
30 2 19
30 3 83
30 4 59
30 5 9
30 6 4
30 7 9
30 8 57
30 9 78
30 10 44
30 11 42
30 12 84
30 13 100
30 14 19
30 15 97
30 16 70
30 17 6
30 18 66
30 19 80
30 20 40
30 21 43
30 22 40
30 23 49
30 24 27
30 25 16
30 26 66
30 27 10
30 28 40
30 29 75
31 0 17
31 1 94
31 2 92
31 3 46
31 4 40
31 5 83
31 6 67
31 7 54
31 8 33
31 9 92
31 10 93
31 11 98
31 12 15
31 13 26
31 14 32
31 15 50
31 16 63
31 17 63
31 18 8
31 19 14
31 20 4
31 21 35
31 22 44
31 23 55
31 24 79
31 25 7
31 26 65
31 27 84
31 28 31
31 29 78
31 30 2
32 0 63
32 1 63
32 2 51
32 3 98
32 4 58
32 5 90
32 6 52
32 7 88
32 8 70
32 9 68
32 10 85
32 11 30
32 12 1
32 13 74
32 14 57
32 15 90
32 16 50
32 17 81
32 18 23
32 19 10
32 20 44
32 21 33
32 22 15
32 23 21
32 24 43
32 25 39
32 26 61
32 27 71
32 28 81
32 29 13
32 30 14
32 31 79
33 0 23
33 1 51
33 2 51
33 3 48
33 4 62
33 5 16
33 6 92
33 7 85
33 8 78
33 9 63
33 10 71
33 11 14
33 12 30
33 13 39
33 14 45
33 15 78
33 16 66
33 17 30
33 18 26
33 19 78
33 20 56
33 21 43
33 22 82
33 23 81
33 24 92
33 25 44
33 26 25
33 27 99
33 28 17
33 29 96
33 30 96
33 31 23
33 32 55
34 0 58
34 1 2
34 2 64
34 3 75
34 4 43
34 5 86
34 6 37
34 7 10
34 8 59
34 9 9
34 10 80
34 11 94
34 12 53
34 13 94
34 14 6
34 15 11
34 16 55
34 17 54
34 18 28
34 19 59
34 20 93
34 21 99
34 22 96
34 23 67
34 24 3
34 25 10
34 26 41
34 27 37
34 28 82
34 29 11
34 30 26
34 31 72
34 32 42
34 33 70
35 0 31
35 1 36
35 2 66
35 3 35
35 4 32
35 5 51
35 6 79
35 7 70
35 8 47
35 9 10
35 10 76
35 11 37
35 12 66
35 13 87
35 14 78
35 15 63
35 16 83
35 17 57
35 18 8
35 19 69
35 20 90
35 21 57
35 22 98
35 23 60
35 24 14
35 25 63
35 26 84
35 27 99
35 28 1
35 29 46
35 30 35
35 31 13
35 32 80
35 33 47
35 34 36
36 0 6
36 1 54
36 2 79
36 3 14
36 4 81
36 5 5
36 6 42
36 7 73
36 8 81
36 9 19
36 10 23
36 11 87
36 12 25
36 13 59
36 14 85
36 15 65
36 16 80
36 17 32
36 18 13
36 19 77
36 20 92
36 21 53
36 22 37
36 23 16
36 24 93
36 25 80
36 26 49
36 27 31
36 28 25
36 29 84
36 30 12
36 31 54
36 32 68
36 33 78
36 34 3
36 35 17
37 0 62
37 1 6
37 2 44
37 3 5
37 4 45
37 5 89
37 6 14
37 7 29
37 8 67
37 9 57
37 10 54
37 11 86
37 12 42
37 13 26
37 14 91
37 15 45
37 16 43
37 17 2
37 18 59
37 19 86
37 20 59
37 21 2
37 22 89
37 23 77
37 24 76
37 25 47
37 26 81
37 27 62
37 28 33
37 29 60
37 30 10
37 31 89
37 32 72
37 33 59
37 34 97
37 35 23
37 36 1
38 0 52
38 1 70
38 2 100
38 3 11
38 4 55
38 5 87
38 6 29
38 7 29
38 8 1
38 9 90
38 10 50
38 11 1
38 12 4
38 13 29
38 14 83
38 15 37
38 16 3
38 17 55
38 18 65
38 19 53
38 20 94
38 21 89
38 22 31
38 23 95
38 24 24
38 25 97
38 26 77
38 27 45
38 28 15
38 29 53
38 30 53
38 31 17
38 32 28
38 33 44
38 34 34
38 35 18
38 36 100
38 37 62
39 0 78
39 1 19
39 2 100
39 3 94
39 4 80
39 5 56
39 6 92
39 7 85
39 8 71
39 9 82
39 10 9
39 11 57
39 12 22
39 13 98
39 14 63
39 15 93
39 16 52
39 17 77
39 18 57
39 19 22
39 20 56
39 21 32
39 22 58
39 23 75
39 24 92
39 25 95
39 26 69
39 27 86
39 28 97
39 29 24
39 30 93
39 31 55
39 32 30
39 33 34
39 34 74
39 35 14
39 36 50
39 37 33
39 38 77
40 0 48
40 1 75
40 2 1
40 3 22
40 4 65
40 5 97
40 6 53
40 7 95
40 8 18
40 9 31
40 10 62
40 11 95
40 12 33
40 13 28
40 14 42
40 15 2
40 16 75
40 17 95
40 18 10
40 19 53
40 20 71
40 21 74
40 22 85
40 23 85
40 24 75
40 25 93
40 26 84
40 27 71
40 28 27
40 29 93
40 30 35
40 31 44
40 32 60
40 33 79
40 34 1
40 35 17
40 36 48
40 37 60
40 38 97
40 39 23
41 0 96
41 1 73
41 2 44
41 3 21
41 4 18
41 5 6
41 6 84
41 7 73
41 8 59
41 9 68
41 10 58
41 11 73
41 12 51
41 13 62
41 14 13
41 15 67
41 16 10
41 17 70
41 18 4
41 19 26
41 20 15
41 21 51
41 22 84
41 23 36
41 24 24
41 25 8
41 26 24
41 27 28
41 28 22
41 29 83
41 30 88
41 31 65
41 32 6
41 33 77
41 34 60
41 35 45
41 36 43
41 37 8
41 38 4
41 39 6
41 40 64
42 0 57
42 1 87
42 2 26
42 3 87
42 4 61
42 5 23
42 6 57
42 7 65
42 8 54
42 9 94
42 10 53
42 11 9
42 12 65
42 13 62
42 14 51
42 15 45
42 16 25
42 17 86
42 18 39
42 19 81
42 20 39
42 21 4
42 22 14
42 23 13
42 24 27
42 25 36
42 26 6
42 27 88
42 28 47
42 29 28
42 30 34
42 31 100
42 32 38
42 33 45
42 34 6
42 35 94
42 36 61
42 37 67
42 38 95
42 39 2
42 40 15
42 41 64
43 0 34
43 1 29
43 2 69
43 3 50
43 4 29
43 5 73
43 6 21
43 7 26
43 8 77
43 9 45
43 10 86
43 11 83
43 12 29
43 13 12
43 14 79
43 15 24
43 16 54
43 17 95
43 18 21
43 19 4
43 20 75
43 21 90
43 22 11
43 23 16
43 24 95
43 25 81
43 26 36
43 27 77
43 28 30
43 29 82
43 30 95
43 31 72
43 32 11
43 33 22
43 34 72
43 35 71
43 36 42
43 37 42
43 38 100
43 39 36
43 40 100
43 41 98
43 42 62
44 0 64
44 1 24
44 2 66
44 3 55
44 4 47
44 5 45
44 6 4
44 7 4
44 8 39
44 9 30
44 10 12
44 11 88
44 12 66
44 13 52
44 14 90
44 15 36
44 16 10
44 17 13
44 18 7
44 19 93
44 20 63
44 21 77
44 22 5
44 23 61
44 24 28
44 25 88
44 26 8
44 27 77
44 28 10
44 29 89
44 30 25
44 31 73
44 32 27
44 33 58
44 34 49
44 35 32
44 36 33
44 37 29
44 38 94
44 39 38
44 40 43
44 41 65
44 42 38
44 43 82
45 0 75
45 1 2
45 2 39
45 3 73
45 4 81
45 5 88
45 6 57
45 7 61
45 8 12
45 9 63
45 10 5
45 11 81
45 12 48
45 13 77
45 14 95
45 15 65
45 16 81
45 17 39
45 18 61
45 19 86
45 20 34
45 21 32
45 22 83
45 23 33
45 24 65
45 25 44
45 26 25
45 27 21
45 28 68
45 29 8
45 30 77
45 31 1
45 32 88
45 33 32
45 34 61
45 35 13
45 36 8
45 37 80
45 38 33
45 39 91
45 40 65
45 41 34
45 42 100
45 43 30
45 44 17
46 0 26
46 1 30
46 2 65
46 3 61
46 4 49
46 5 24
46 6 18
46 7 70
46 8 69
46 9 83
46 10 17
46 11 12
46 12 5
46 13 77
46 14 100
46 15 47
46 16 37
46 17 12
46 18 39
46 19 47
46 20 75
46 21 46
46 22 72
46 23 53
46 24 88
46 25 98
46 26 8
46 27 77
46 28 77
46 29 59
46 30 50
46 31 27
46 32 49
46 33 87
46 34 57
46 35 84
46 36 12
46 37 59
46 38 25
46 39 85
46 40 15
46 41 94
46 42 73
46 43 74
46 44 91
46 45 93
47 0 59
47 1 40
47 2 73
47 3 43
47 4 62
47 5 36
47 6 7
47 7 78
47 8 97
47 9 61
47 10 75
47 11 14
47 12 59
47 13 55
47 14 90
47 15 82
47 16 18
47 17 13
47 18 43
47 19 29
47 20 95
47 21 45
47 22 6
47 23 77
47 24 97
47 25 29
47 26 24
47 27 34
47 28 4
47 29 26
47 30 42
47 31 17
47 32 14
47 33 67
47 34 65
47 35 28
47 36 4
47 37 20
47 38 33
47 39 82
47 40 66
47 41 2
47 42 58
47 43 90
47 44 5
47 45 98
47 46 76
48 0 42
48 1 34
48 2 94
48 3 86
48 4 45
48 5 88
48 6 41
48 7 87
48 8 99
48 9 45
48 10 100
48 11 48
48 12 34
48 13 24
48 14 52
48 15 47
48 16 37
48 17 97
48 18 57
48 19 89
48 20 24
48 21 54
48 22 89
48 23 79
48 24 58
48 25 72
48 26 10
48 27 98
48 28 14
48 29 9
48 30 38
48 31 29
48 32 27
48 33 12
48 34 15
48 35 19
48 36 91
48 37 2
48 38 10
48 39 75
48 40 91
48 41 94
48 42 79
48 43 30
48 44 77
48 45 46
48 46 90
48 47 31
49 0 22
49 1 55
49 2 80
49 3 29
49 4 23
49 5 46
49 6 92
49 7 83
49 8 26
49 9 17
49 10 25
49 11 93
49 12 100
49 13 30
49 14 78
49 15 31
49 16 76
49 17 75
49 18 86
49 19 47
49 20 34
49 21 42
49 22 76
49 23 49
49 24 12
49 25 71
49 26 75
49 27 96
49 28 41
49 29 72
49 30 70
49 31 51
49 32 69
49 33 32
49 34 96
49 35 77
49 36 99
49 37 56
49 38 85
49 39 88
49 40 66
49 41 3
49 42 33
49 43 68
49 44 25
49 45 13
49 46 36
49 47 38
49 48 23
